c Created with the Wolfram Language : www.wolfram.com
c 
p edge 90 851
e 1 2
e 3 5
e 3 6
e 1 7
e 2 7
e 4 7
e 5 7
e 2 8
e 5 8
e 2 9
e 2 10
e 7 10
e 9 10
e 10 11
e 4 12
e 6 12
e 8 12
e 2 13
e 3 13
e 10 13
e 3 14
e 6 14
e 9 14
e 2 15
e 6 15
e 9 15
e 11 15
e 2 16
e 7 16
e 9 16
e 13 16
e 14 16
e 4 17
e 7 17
e 12 17
e 16 17
e 1 18
e 4 18
e 5 18
e 6 18
e 15 18
e 1 19
e 3 19
e 7 19
e 13 19
e 2 20
e 3 20
e 14 20
e 9 21
e 13 21
e 14 21
e 20 21
e 2 23
e 4 23
e 14 23
e 18 23
e 1 24
e 3 24
e 6 24
e 7 24
e 9 24
e 11 24
e 17 24
e 21 24
e 11 25
e 12 25
e 22 25
e 1 26
e 3 26
e 15 26
e 24 26
e 2 27
e 4 27
e 5 27
e 8 27
e 11 27
e 17 27
e 18 27
e 21 27
e 21 28
e 2 29
e 4 29
e 22 29
e 24 29
e 25 29
e 2 30
e 5 30
e 9 30
e 15 30
e 20 30
e 22 30
e 28 30
e 2 31
e 5 31
e 8 31
e 12 31
e 19 31
e 29 31
e 30 31
e 1 32
e 8 32
e 9 32
e 11 32
e 2 33
e 6 33
e 26 33
e 30 33
e 31 33
e 2 34
e 6 34
e 13 34
e 14 34
e 19 34
e 20 34
e 24 34
e 26 34
e 27 34
e 30 34
e 31 34
e 32 34
e 33 34
e 3 35
e 7 35
e 10 35
e 14 35
e 17 35
e 19 35
e 33 35
e 4 36
e 7 36
e 8 36
e 17 36
e 20 36
e 22 36
e 14 37
e 19 37
e 22 37
e 25 37
e 30 37
e 3 38
e 4 38
e 8 38
e 9 38
e 10 38
e 16 38
e 22 38
e 24 38
e 26 38
e 29 38
e 33 38
e 2 39
e 17 39
e 19 39
e 23 39
e 38 39
e 14 40
e 19 40
e 20 40
e 23 40
e 26 40
e 29 40
e 35 40
e 1 41
e 12 41
e 20 41
e 22 41
e 26 41
e 28 41
e 29 41
e 30 41
e 34 41
e 39 41
e 40 41
e 1 42
e 2 42
e 13 42
e 15 42
e 18 42
e 19 42
e 26 42
e 28 42
e 29 42
e 30 42
e 31 42
e 40 42
e 9 43
e 14 43
e 16 43
e 20 43
e 21 43
e 32 43
e 33 43
e 42 43
e 4 44
e 7 44
e 13 44
e 14 44
e 16 44
e 19 44
e 21 44
e 22 44
e 25 44
e 32 44
e 37 44
e 38 44
e 39 44
e 40 44
e 43 44
e 1 45
e 7 45
e 8 45
e 12 45
e 15 45
e 20 45
e 32 45
e 34 45
e 39 45
e 4 46
e 9 46
e 11 46
e 16 46
e 22 46
e 25 46
e 29 46
e 42 46
e 44 46
e 4 47
e 6 47
e 8 47
e 12 47
e 13 47
e 17 47
e 19 47
e 24 47
e 32 47
e 34 47
e 44 47
e 45 47
e 4 48
e 5 48
e 10 48
e 16 48
e 17 48
e 22 48
e 31 48
e 34 48
e 38 48
e 47 48
e 3 49
e 7 49
e 14 49
e 15 49
e 16 49
e 22 49
e 27 49
e 34 49
e 37 49
e 39 49
e 40 49
e 45 49
e 2 50
e 13 50
e 15 50
e 16 50
e 22 50
e 25 50
e 26 50
e 34 50
e 37 50
e 38 50
e 43 50
e 44 50
e 14 51
e 29 51
e 35 51
e 41 51
e 49 51
e 2 52
e 5 52
e 7 52
e 9 52
e 16 52
e 21 52
e 30 52
e 31 52
e 34 52
e 36 52
e 41 52
e 43 52
e 2 53
e 4 53
e 6 53
e 9 53
e 10 53
e 12 53
e 28 53
e 32 53
e 36 53
e 38 53
e 39 53
e 43 53
e 46 53
e 51 53
e 12 54
e 13 54
e 14 54
e 15 54
e 24 54
e 25 54
e 32 54
e 46 54
e 48 54
e 3 55
e 8 55
e 14 55
e 17 55
e 28 55
e 45 55
e 47 55
e 49 55
e 18 56
e 29 56
e 31 56
e 34 56
e 37 56
e 41 56
e 44 56
e 49 56
e 55 56
e 5 57
e 11 57
e 15 57
e 21 57
e 29 57
e 30 57
e 32 57
e 36 57
e 37 57
e 41 57
e 49 57
e 52 57
e 53 57
e 1 58
e 5 58
e 8 58
e 9 58
e 11 58
e 15 58
e 20 58
e 30 58
e 41 58
e 42 58
e 51 58
e 55 58
e 57 58
e 3 59
e 5 59
e 17 59
e 19 59
e 21 59
e 24 59
e 35 59
e 44 59
e 46 59
e 49 59
e 54 59
e 57 59
e 6 60
e 9 60
e 11 60
e 25 60
e 26 60
e 36 60
e 39 60
e 40 60
e 43 60
e 44 60
e 50 60
e 52 60
e 56 60
e 59 60
e 3 61
e 6 61
e 15 61
e 16 61
e 17 61
e 18 61
e 30 61
e 32 61
e 41 61
e 47 61
e 49 61
e 50 61
e 52 61
e 58 61
e 2 62
e 8 62
e 12 62
e 19 62
e 22 62
e 26 62
e 29 62
e 33 62
e 36 62
e 41 62
e 42 62
e 47 62
e 51 62
e 52 62
e 60 62
e 3 63
e 5 63
e 6 63
e 13 63
e 14 63
e 20 63
e 21 63
e 22 63
e 25 63
e 26 63
e 29 63
e 34 63
e 40 63
e 42 63
e 43 63
e 48 63
e 52 63
e 53 63
e 54 63
e 55 63
e 1 64
e 4 64
e 19 64
e 24 64
e 32 64
e 35 64
e 41 64
e 42 64
e 47 64
e 49 64
e 62 64
e 4 65
e 7 65
e 9 65
e 14 65
e 15 65
e 17 65
e 19 65
e 25 65
e 26 65
e 27 65
e 48 65
e 50 65
e 51 65
e 55 65
e 60 65
e 4 66
e 14 66
e 19 66
e 20 66
e 28 66
e 30 66
e 32 66
e 33 66
e 38 66
e 40 66
e 41 66
e 43 66
e 50 66
e 62 66
e 2 67
e 3 67
e 14 67
e 19 67
e 27 67
e 34 67
e 41 67
e 43 67
e 44 67
e 51 67
e 60 67
e 62 67
e 8 68
e 20 68
e 22 68
e 29 68
e 30 68
e 33 68
e 34 68
e 35 68
e 44 68
e 45 68
e 46 68
e 48 68
e 62 68
e 1 69
e 2 69
e 7 69
e 16 69
e 33 69
e 42 69
e 43 69
e 53 69
e 57 69
e 61 69
e 63 69
e 64 69
e 68 69
e 1 70
e 4 70
e 16 70
e 17 70
e 19 70
e 20 70
e 21 70
e 25 70
e 46 70
e 48 70
e 51 70
e 53 70
e 62 70
e 63 70
e 66 70
e 68 70
e 2 71
e 5 71
e 18 71
e 26 71
e 27 71
e 29 71
e 30 71
e 31 71
e 32 71
e 44 71
e 48 71
e 62 71
e 63 71
e 65 71
e 4 72
e 12 72
e 14 72
e 18 72
e 21 72
e 25 72
e 32 72
e 36 72
e 39 72
e 43 72
e 46 72
e 48 72
e 53 72
e 59 72
e 63 72
e 65 72
e 67 72
e 70 72
e 3 73
e 12 73
e 20 73
e 24 73
e 26 73
e 28 73
e 43 73
e 48 73
e 49 73
e 52 73
e 58 73
e 65 73
e 66 73
e 2 74
e 6 74
e 7 74
e 15 74
e 16 74
e 17 74
e 18 74
e 23 74
e 28 74
e 32 74
e 35 74
e 36 74
e 51 74
e 56 74
e 60 74
e 61 74
e 62 74
e 72 74
e 2 75
e 3 75
e 7 75
e 11 75
e 14 75
e 17 75
e 31 75
e 32 75
e 33 75
e 39 75
e 43 75
e 45 75
e 58 75
e 59 75
e 60 75
e 64 75
e 65 75
e 67 75
e 72 75
e 14 76
e 18 76
e 19 76
e 21 76
e 24 76
e 28 76
e 29 76
e 33 76
e 37 76
e 38 76
e 39 76
e 44 76
e 50 76
e 56 76
e 59 76
e 64 76
e 73 76
e 74 76
e 3 77
e 11 77
e 25 77
e 32 77
e 35 77
e 39 77
e 62 77
e 64 77
e 66 77
e 71 77
e 72 77
e 3 78
e 6 78
e 8 78
e 15 78
e 17 78
e 27 78
e 28 78
e 30 78
e 32 78
e 33 78
e 34 78
e 37 78
e 46 78
e 50 78
e 54 78
e 69 78
e 70 78
e 71 78
e 3 79
e 6 79
e 11 79
e 13 79
e 18 79
e 23 79
e 35 79
e 37 79
e 38 79
e 44 79
e 45 79
e 48 79
e 54 79
e 74 79
e 77 79
e 6 80
e 14 80
e 16 80
e 32 80
e 34 80
e 35 80
e 36 80
e 44 80
e 45 80
e 55 80
e 68 80
e 69 80
e 72 80
e 76 80
e 9 81
e 13 81
e 18 81
e 20 81
e 28 81
e 31 81
e 33 81
e 42 81
e 43 81
e 44 81
e 49 81
e 54 81
e 55 81
e 56 81
e 57 81
e 63 81
e 66 81
e 70 81
e 72 81
e 2 82
e 6 82
e 8 82
e 16 82
e 26 82
e 31 82
e 35 82
e 41 82
e 45 82
e 50 82
e 52 82
e 58 82
e 65 82
e 72 82
e 75 82
e 78 82
e 5 83
e 18 83
e 33 83
e 43 83
e 48 83
e 51 83
e 53 83
e 61 83
e 71 83
e 72 83
e 75 83
e 76 83
e 8 84
e 10 84
e 11 84
e 14 84
e 15 84
e 18 84
e 21 84
e 22 84
e 25 84
e 28 84
e 36 84
e 37 84
e 62 84
e 68 84
e 10 85
e 11 85
e 23 85
e 25 85
e 42 85
e 49 85
e 50 85
e 56 85
e 62 85
e 65 85
e 68 85
e 76 85
e 78 85
e 84 85
e 1 86
e 8 86
e 21 86
e 23 86
e 25 86
e 28 86
e 29 86
e 35 86
e 39 86
e 43 86
e 48 86
e 52 86
e 54 86
e 61 86
e 66 86
e 69 86
e 75 86
e 76 86
e 80 86
e 2 87
e 4 87
e 17 87
e 19 87
e 20 87
e 24 87
e 30 87
e 31 87
e 33 87
e 36 87
e 37 87
e 38 87
e 49 87
e 54 87
e 59 87
e 66 87
e 67 87
e 72 87
e 81 87
e 83 87
e 84 87
e 1 88
e 2 88
e 9 88
e 18 88
e 21 88
e 29 88
e 32 88
e 34 88
e 36 88
e 40 88
e 41 88
e 47 88
e 53 88
e 55 88
e 58 88
e 62 88
e 67 88
e 68 88
e 76 88
e 77 88
e 79 88
e 82 88
e 12 89
e 17 89
e 20 89
e 22 89
e 31 89
e 38 89
e 54 89
e 59 89
e 72 89
e 78 89
e 80 89
e 85 89
e 5 90
e 8 90
e 11 90
e 14 90
e 22 90
e 27 90
e 30 90
e 35 90
e 38 90
e 43 90
e 50 90
e 52 90
e 54 90
e 64 90
e 69 90
e 73 90
e 75 90
e 86 90
e 88 90
e 89 90
